(declare-fun temp1679_2 () (_ BitVec 64))
(declare-fun temp1679_1 () (_ BitVec 64))
(declare-fun temp1679_3 () (_ BitVec 64))
(declare-fun var1969928 () (_ BitVec 64))
(declare-fun temp1679_5 () (_ BitVec 64))
(declare-fun temp1679_4 () (_ BitVec 64))
(declare-fun temp1679_6 () (_ BitVec 64))
(declare-fun var4463028 () (_ BitVec 64))
(declare-fun temp1679_7 () (_ BitVec 64))
(declare-fun var5506870 () (_ BitVec 64))
(declare-fun var5705948 () (_ BitVec 64))
(declare-fun temp1679_8 () (_ BitVec 64))
(declare-fun var6490091 () (_ BitVec 64))
(declare-fun ARGNAME_input_NAMEEND_DIM () (_ BitVec 64))
(declare-fun temp1679_10 () (_ BitVec 64))
(declare-fun temp1679_9 () (_ BitVec 64))
(declare-fun var6556535 () (_ BitVec 64))
(declare-fun temp1679_11 () (_ BitVec 64))
(declare-fun var6622984 () (_ BitVec 64))
(declare-fun var6688529 () (_ BitVec 64))
(declare-fun temp1679_13 () (_ BitVec 64))
(declare-fun temp1679_12 () (_ BitVec 64))
(declare-fun temp1679_14 () (_ BitVec 64))
(declare-fun var6885111 () (_ BitVec 64))
(declare-fun temp1679_15 () (_ BitVec 64))
(declare-fun var6490152 () (_ BitVec 64))
(declare-fun var6490194 () (_ BitVec 64))
(declare-fun temp1679_17 () (_ BitVec 64))
(declare-fun temp1679_16 () (_ BitVec 64))
(declare-fun temp1679_18 () (_ BitVec 64))
(declare-fun var7343096 () (_ BitVec 64))
(declare-fun temp1679_19 () (_ BitVec 64))
(declare-fun var7343146 () (_ BitVec 64))
(declare-fun temp1679_20 () (_ BitVec 64))
(declare-fun var6490139 () (_ BitVec 64))
(declare-fun var6490138 () (_ BitVec 64))
(declare-fun temp1679_21 () (_ BitVec 64))
(declare-fun var6490143 () (_ BitVec 64))
(declare-fun temp1679_22 () (_ BitVec 64))
(declare-fun var6490145 () (_ BitVec 64))
(declare-fun temp1679_23 () (_ BitVec 64))
(declare-fun temp1679_24 () (_ BitVec 64))
(declare-fun var8390862 () (_ BitVec 64))
(declare-fun temp1679_25 () (_ BitVec 64))
(declare-fun temp1679_26 () (_ BitVec 64))
(declare-fun var8390908 () (_ BitVec 64))
(declare-fun var8390939 () (_ BitVec 64))
(declare-fun var8390860 () (_ BitVec 64))
(declare-fun var205360 () (_ BitVec 64))
(declare-fun var205361 () (_ BitVec 64))
(declare-fun temp1679_27 () (_ BitVec 64))
(declare-fun var10297700 () (_ BitVec 64))
(declare-fun var10297741 () (_ BitVec 64))
(declare-fun temp1679_28 () (_ BitVec 64))
(declare-fun var10490501 () (_ BitVec 64))
(declare-fun var10490505 () (_ BitVec 64))
(declare-fun temp1679_29 () (_ BitVec 64))
(declare-fun var10490506 () (_ BitVec 64))
(declare-fun var10621656 () (_ BitVec 64))
(declare-fun var10621657 () (_ BitVec 64))
(assert (= temp1679_2 #x0000000000000000))
(assert (= temp1679_1 temp1679_2))
(assert (= temp1679_3 #x0000000000000005))
(assert (= var1969928 temp1679_3))
(assert (= temp1679_5 #x0000000000000000))
(assert (= temp1679_4 temp1679_5))
(assert (= temp1679_6 #x0000000000000000))
(assert (= var4463028 temp1679_6))
(assert (= temp1679_7 #x0000000000000000))
(assert (= var5506870 temp1679_7))
(assert (= var5705948 var5506870))
(assert (= temp1679_8 #x0000000000000001))
(assert (= var6490091 (bvshl ARGNAME_input_NAMEEND_DIM temp1679_8)))
(assert (= temp1679_10 #x0000000000000000))
(assert (= temp1679_9 temp1679_10))
(assert (= var6556535 var6490091))
(assert (= temp1679_11 #x0000000000000005))
(assert (= var6622984 temp1679_11))
(assert (= var6688529 var6556535))
(assert (= temp1679_13 #x0000000000000000))
(assert (= temp1679_12 temp1679_13))
(assert (= temp1679_14 #x0000000000000000))
(assert (= var6885111 temp1679_14))
(assert (= temp1679_15 #x0000000000000000))
(assert (= var6490152 temp1679_15))
(assert (= var6490194 var6490152))
(assert (= temp1679_17 #x0000000000000000))
(assert (= temp1679_16 temp1679_17))
(assert (= temp1679_18 #x0000000000000001))
(assert (= var7343096 temp1679_18))
(assert (= temp1679_19 #x0000000000000000))
(assert (= var7343146 temp1679_19))
(assert (= temp1679_20 #x0000000000000000))
(assert (= var7343146 temp1679_20))
(assert (= var6490139 var6490194))
(assert (= var6490138 var6490139))
(assert (= temp1679_21 #x0000000000000001))
(assert (= var6490143 (bvand var6490138 temp1679_21)))
(assert (= temp1679_22 #x0000000000000000))
(assert (= var6490145
   (ite (= var6490143 temp1679_22) #x0000000000000001 #x0000000000000000)))
(assert (= temp1679_23 #x0000000000000001))
(assert (= var6490145 temp1679_23))
(assert (= temp1679_24 #x0000000000000000))
(assert (= var8390862 temp1679_24))
(assert (= temp1679_25 #x0000000000000002))
(assert (= temp1679_26 #x0000000000000000))
(assert (= var8390908 (ite (= var8390862 #x0000000000000001) temp1679_25 temp1679_26)))
(assert (= var8390939 var8390908))
(assert (= var8390860 var8390939))
(assert (= var205360 var8390860))
(assert (= var205361 var205360))
(assert (= temp1679_27 #x0000000000000000))
(assert (= var10297700 temp1679_27))
(assert (= var10297741 var10297700))
(assert (= temp1679_28 #x0000000000000006))
(assert (= var10490501 temp1679_28))
(assert (= var10490505 var205361))
(assert (= temp1679_29 #x0000000000000000))
(assert (= var10490506 temp1679_29))
(assert (= var10621656 var10490505))
(assert (= var10621657 var10490506))
(model-add temp1679_2 () (_ BitVec 64) #x0000000000000000)
(model-add temp1679_1 () (_ BitVec 64) #x0000000000000000)
(model-add temp1679_3 () (_ BitVec 64) #x0000000000000005)
(model-add var1969928 () (_ BitVec 64) #x0000000000000005)
(model-add temp1679_5 () (_ BitVec 64) #x0000000000000000)
(model-add temp1679_4 () (_ BitVec 64) #x0000000000000000)
(model-add temp1679_6 () (_ BitVec 64) #x0000000000000000)
(model-add var4463028 () (_ BitVec 64) #x0000000000000000)
(model-add temp1679_7 () (_ BitVec 64) #x0000000000000000)
(model-add var5506870 () (_ BitVec 64) #x0000000000000000)
(model-add var5705948 () (_ BitVec 64) #x0000000000000000)
(model-add temp1679_8 () (_ BitVec 64) #x0000000000000001)
(model-add var6490091
           ()
           (_ BitVec 64)
           (concat ((_ extract 62 0) ARGNAME_input_NAMEEND_DIM) #b0))
(model-add temp1679_10 () (_ BitVec 64) #x0000000000000000)
(model-add temp1679_9 () (_ BitVec 64) #x0000000000000000)
(model-add var6556535
           ()
           (_ BitVec 64)
           (concat ((_ extract 62 0) ARGNAME_input_NAMEEND_DIM) #b0))
(model-add temp1679_11 () (_ BitVec 64) #x0000000000000005)
(model-add var6622984 () (_ BitVec 64) #x0000000000000005)
(model-add var6688529
           ()
           (_ BitVec 64)
           (concat ((_ extract 62 0) ARGNAME_input_NAMEEND_DIM) #b0))
(model-add temp1679_13 () (_ BitVec 64) #x0000000000000000)
(model-add temp1679_12 () (_ BitVec 64) #x0000000000000000)
(model-add temp1679_14 () (_ BitVec 64) #x0000000000000000)
(model-add var6885111 () (_ BitVec 64) #x0000000000000000)
(model-add temp1679_15 () (_ BitVec 64) #x0000000000000000)
(model-add var6490152 () (_ BitVec 64) #x0000000000000000)
(model-add var6490194 () (_ BitVec 64) #x0000000000000000)
(model-add temp1679_17 () (_ BitVec 64) #x0000000000000000)
(model-add temp1679_16 () (_ BitVec 64) #x0000000000000000)
(model-add temp1679_18 () (_ BitVec 64) #x0000000000000001)
(model-add var7343096 () (_ BitVec 64) #x0000000000000001)
(model-add temp1679_19 () (_ BitVec 64) #x0000000000000000)
(model-add var7343146 () (_ BitVec 64) #x0000000000000000)
(model-add temp1679_20 () (_ BitVec 64) #x0000000000000000)






